NAME : amz1923.177689_108689.tour
COMMENT : Cost = 177689_108689
COMMENT : Found by LKH-AMZ [Keld Helsgaun] Sun May 11 15:03:24 2025
COMMENT : TW viol.: 0 #: 0
TYPE : TOUR
DIMENSION : 173
TOUR_SECTION
62
96
160
29
61
31
22
170
50
145
126
27
49
102
137
19
40
28
88
140
79
25
124
133
163
71
99
122
86
98
89
155
138
32
26
59
139
143
156
64
38
97
20
127
93
109
41
6
3
165
116
63
152
60
9
15
23
142
5
52
154
30
157
91
16
4
34
68
144
136
66
70
172
17
92
113
44
33
101
51
111
167
24
131
108
128
35
18
114
36
58
147
13
166
117
72
161
134
56
75
90
55
135
153
123
159
112
168
107
173
77
121
14
103
47
164
158
151
120
2
171
48
12
87
95
129
149
118
43
130
45
53
141
119
42
162
11
65
73
148
169
67
125
83
94
84
76
46
105
1
57
132
85
7
8
78
21
104
150
115
10
39
82
110
100
81
80
146
74
37
69
106
54
-1
EOF
